0
Node Left Objective IInf Best_Integer Best_Bound ItCnt Gap
0 0 193.4138 23 193.4138 13
0+ 0 nan nan 1137.6779 193.4138 nan 83.00%
0+ 0 nan nan 1002.1076 193.4138 nan 80.70%
0+ 0 nan nan 988.2986 193.4138 nan 80.43%
0+ 0 nan nan 862.1146 193.4138 nan 77.57%
0 2 193.4138 23 862.1146 200.5981 13 76.73%
CPXPARAM_MIP_Cuts_ZeroHalfCut 0
1
Node Left Objective IInf Best_Integer Best_Bound ItCnt Gap
0 0 383.6264 8 383.6264 12
0+ 0 nan nan 863.6264 383.6264 nan 55.58%
0+ 0 nan nan 557.9158 383.6264 nan 31.24%
0 2 383.6264 8 557.9158 383.6264 12 31.24%
CPXPARAM_MIP_Cuts_ZeroHalfCut 0
2
Node Left Objective IInf Best_Integer Best_Bound ItCnt Gap
0 0 0.0000 28 0.0000 16
0+ 0 nan nan 1196.7789 0.0000 nan 100.00%
0+ 0 nan nan 576.9431 0.0000 nan 100.00%
0 2 0.0000 28 576.9431 0.0000 16 100.00%
CPXPARAM_MIP_Cuts_ZeroHalfCut 0
3
Node Left Objective IInf Best_Integer Best_Bound ItCnt Gap
0 0 94.5810 18 94.5810 12
0+ 0 nan nan 927.7873 94.5810 nan 89.81%
0+ 0 nan nan 355.1007 94.5810 nan 73.37%
0+ 0 nan nan 337.6451 94.5810 nan 71.99%
0 2 94.5810 18 337.6451 110.6599 12 67.23%
CPXPARAM_MIP_Cuts_ZeroHalfCut 0
4
Node Left Objective IInf Best_Integer Best_Bound ItCnt Gap
0 0 743.6527 14 743.6527 12
0+ 0 nan nan 1778.0217 743.6527 nan 58.18%
0 2 743.6527 14 1778.0217 743.6527 12 58.18%
CPXPARAM_MIP_Cuts_ZeroHalfCut 0
5
Node Left Objective IInf Best_Integer Best_Bound ItCnt Gap
0 0 824.6004 6 824.6004 12
0+ 0 nan nan 1084.6004 824.6004 nan 23.97%
0+ 0 nan nan 975.3737 824.6004 nan 15.46%
0+ 0 nan nan 916.4161 824.6004 nan 10.02%
0+ 0 nan nan 865.6388 824.6004 nan 4.74%
0 2 824.6004 5 865.6388 824.6004 12 4.74%
CPXPARAM_MIP_Cuts_ZeroHalfCut 0
6
Node Left Objective IInf Best_Integer Best_Bound ItCnt Gap
0 0 201.0936 27 201.0936 14
0+ 0 nan nan 981.0553 201.0936 nan 79.50%
0+ 0 nan nan 807.3765 201.0936 nan 75.09%
0 2 201.0936 27 807.3765 206.1129 14 74.47%
CPXPARAM_MIP_Cuts_ZeroHalfCut 0
7
Node Left Objective IInf Best_Integer Best_Bound ItCnt Gap
0 0 171.8712 19 171.8712 13
0+ 0 nan nan 980.9300 171.8712 nan 82.48%
0+ 0 nan nan 584.9235 171.8712 nan 70.62%
0+ 0 nan nan 554.2802 171.8712 nan 68.99%
0+ 0 nan nan 428.2704 171.8712 nan 59.87%
0 2 171.8712 19 428.2704 193.6140 13 54.79%
CPXPARAM_MIP_Cuts_ZeroHalfCut 0
8
Node Left Objective IInf Best_Integer Best_Bound ItCnt Gap
0 0 420.0936 22 420.0936 14
0+ 0 nan nan 1553.6356 420.0936 nan 72.96%
0+ 0 nan nan 1427.4397 420.0936 nan 70.57%
0+ 0 nan nan 1198.2635 420.0936 nan 64.94%
0 2 420.0936 22 1198.2635 425.4663 14 64.49%
CPXPARAM_MIP_Cuts_ZeroHalfCut 0
9
Node Left Objective IInf Best_Integer Best_Bound ItCnt Gap
0 0 580.8795 8 580.8795 12
0+ 0 nan nan 1140.8795 580.8795 nan 49.08%
0+ 0 nan nan 772.7795 580.8795 nan 24.83%
0 2 580.8795 8 772.7795 580.8795 12 24.83%
CPXPARAM_MIP_Cuts_ZeroHalfCut 0
10
Node Left Objective IInf Best_Integer Best_Bound ItCnt Gap
0 0 0.1662 36 0.1662 16
0+ 0 nan nan 492.0262 0.1662 nan 99.97%
0+ 0 nan nan 411.1471 0.1662 nan 99.96%
0+ 0 nan nan 406.1514 0.1662 nan 99.96%
0 2 0.1662 36 406.1514 0.1769 16 99.96%
CPXPARAM_MIP_Cuts_ZeroHalfCut 0
11
Node Left Objective IInf Best_Integer Best_Bound ItCnt Gap
0 0 3.1984 26 3.1984 16
0+ 0 nan nan 934.8054 3.1984 nan 99.66%
0+ 0 nan nan 309.7232 3.1984 nan 98.97%
0+ 0 nan nan 231.1636 3.1984 nan 98.62%
0 2 3.1984 26 231.1636 3.5512 16 98.46%
CPXPARAM_MIP_Cuts_ZeroHalfCut 0
12
Node Left Objective IInf Best_Integer Best_Bound ItCnt Gap
0 0 269.7984 23 269.7984 14
0+ 0 nan nan 1086.0851 269.7984 nan 75.16%
0+ 0 nan nan 1010.9191 269.7984 nan 73.31%
0 2 269.7984 23 1010.9191 279.7734 14 72.32%
CPXPARAM_MIP_Cuts_ZeroHalfCut 0
13
Node Left Objective IInf Best_Integer Best_Bound ItCnt Gap
0 0 493.4927 9 493.4927 13
0+ 0 nan nan 1013.4927 493.4927 nan 51.31%
0+ 0 nan nan 664.4267 493.4927 nan 25.73%
0 2 493.4927 9 664.4267 493.4927 13 25.73%
CPXPARAM_MIP_Cuts_ZeroHalfCut 0
14
Node Left Objective IInf Best_Integer Best_Bound ItCnt Gap
0 0 0.1082 36 0.1082 15
0+ 0 nan nan 582.2283 0.1082 nan 99.98%
0+ 0 nan nan 293.6955 0.1082 nan 99.96%
0 2 0.1082 36 293.6955 0.2560 15 99.91%
CPXPARAM_MIP_Cuts_ZeroHalfCut 0
15
Node Left Objective IInf Best_Integer Best_Bound ItCnt Gap
0 0 66.3618 18 66.3618 13
0+ 0 nan nan 1013.4927 66.3618 nan 93.45%
0+ 0 nan nan 516.3066 66.3618 nan 87.15%
0+ 0 nan nan 458.8681 66.3618 nan 85.54%
0+ 0 nan nan 353.9674 66.3618 nan 81.25%
0 2 66.3618 18 353.9674 91.3236 13 74.20%
CPXPARAM_MIP_Cuts_ZeroHalfCut 0
16
Node Left Objective IInf Best_Integer Best_Bound ItCnt Gap
0 0 310.5211 23 310.5211 13
0+ 0 nan nan 1055.6718 310.5211 nan 70.59%
0+ 0 nan nan 979.3037 310.5211 nan 68.29%
0+ 0 nan nan 811.0300 310.5211 nan 61.71%
0 2 310.5211 23 811.0300 323.2630 13 60.14%
CPXPARAM_MIP_Cuts_ZeroHalfCut 0
17
Node Left Objective IInf Best_Integer Best_Bound ItCnt Gap
0 0 720.7294 4 720.7294 13
0+ 0 nan nan 960.7294 720.7294 nan 24.98%
0+ 0 nan nan 870.7943 720.7294 nan 17.23%
0+ 0 nan nan 800.3403 720.7294 nan 9.95%
0 2 720.7294 4 800.3403 720.7294 13 9.95%
CPXPARAM_MIP_Cuts_ZeroHalfCut 0
18
Node Left Objective IInf Best_Integer Best_Bound ItCnt Gap
0 0 70.9860 28 70.9860 13
0+ 0 nan nan 890.2799 70.9860 nan 92.03%
0 2 70.9860 28 890.2799 82.6456 13 90.72%
CPXPARAM_MIP_Cuts_ZeroHalfCut 0
19
Node Left Objective IInf Best_Integer Best_Bound ItCnt Gap
0 0 97.2884 17 97.2884 12
0+ 0 nan nan 955.7271 97.2884 nan 89.82%
0+ 0 nan nan 431.7817 97.2884 nan 77.47%
0+ 0 nan nan 426.2967 97.2884 nan 77.18%
0+ 0 nan nan 366.9267 97.2884 nan 73.49%
0 2 97.2884 17 366.9267 126.2617 12 65.59%
CPXPARAM_MIP_Cuts_ZeroHalfCut 0
20
Node Left Objective IInf Best_Integer Best_Bound ItCnt Gap
0 0 531.7240 14 531.7240 13
0+ 0 nan nan 884.0633 531.7240 nan 39.85%
0 2 531.7240 13 884.0633 531.7240 13 39.85%
CPXPARAM_MIP_Cuts_ZeroHalfCut 0
21
Node Left Objective IInf Best_Integer Best_Bound ItCnt Gap
0 0 531.7240 5 531.7240 12
0+ 0 nan nan 861.7240 531.7240 nan 38.30%
0+ 0 nan nan 598.1103 531.7240 nan 11.10%
0 2 531.7240 6 598.1103 531.7240 12 11.10%
CPXPARAM_MIP_Cuts_ZeroHalfCut 0
22
Node Left Objective IInf Best_Integer Best_Bound ItCnt Gap
0 0 227.5448 22 227.5448 13
0+ 0 nan nan 923.8991 227.5448 nan 75.37%
0 2 227.5448 22 923.8991 227.5448 13 75.37%
CPXPARAM_MIP_Cuts_ZeroHalfCut 0
23
Node Left Objective IInf Best_Integer Best_Bound ItCnt Gap
0 0 242.6314 13 242.6314 13
0+ 0 nan nan 1012.6314 242.6314 nan 76.04%
0+ 0 nan nan 455.3465 242.6314 nan 46.71%
0+ 0 nan nan 442.2439 242.6314 nan 45.14%
0+ 0 nan nan 429.3756 242.6314 nan 43.49%
0 2 242.6314 13 429.3756 242.6314 13 43.49%
CPXPARAM_MIP_Cuts_ZeroHalfCut 0
24
Node Left Objective IInf Best_Integer Best_Bound ItCnt Gap
0 0 563.2442 17 563.2442 13
0+ 0 nan nan 2071.5861 563.2442 nan 72.81%
0 2 563.2442 17 2071.5861 563.2442 13 72.81%
CPXPARAM_MIP_Cuts_ZeroHalfCut 0
25
Node Left Objective IInf Best_Integer Best_Bound ItCnt Gap
0 0 563.2442 8 563.2442 12
0+ 0 nan nan 1083.2442 563.2442 nan 48.00%
0+ 0 nan nan 755.8696 563.2442 nan 25.48%
0+ 0 nan nan 744.3831 563.2442 nan 24.33%
0+ 0 nan nan 713.6263 563.2442 nan 21.07%
0 2 563.2442 8 713.6263 563.2442 12 21.07%
CPXPARAM_MIP_Cuts_ZeroHalfCut 0
26
Node Left Objective IInf Best_Integer Best_Bound ItCnt Gap
0 0 159.9467 27 159.9467 14
0+ 0 nan nan 1056.2351 159.9467 nan 84.86%
0 2 159.9467 27 1056.2351 168.2646 14 84.07%
CPXPARAM_MIP_Cuts_ZeroHalfCut 0
27
Node Left Objective IInf Best_Integer Best_Bound ItCnt Gap
0 0 335.3220 15 335.3220 13
0+ 0 nan nan 1295.3220 335.3220 nan 74.11%
0+ 0 nan nan 566.8560 335.3220 nan 40.85%
0 2 335.3220 15 566.8560 335.3220 13 40.85%
CPXPARAM_MIP_Cuts_ZeroHalfCut 0
28
Node Left Objective IInf Best_Integer Best_Bound ItCnt Gap
0 0 737.6756 15 737.6756 14
0+ 0 nan nan 1513.1409 737.6756 nan 51.25%
0+ 0 nan nan 1466.7200 737.6756 nan 49.71%
0+ 0 nan nan 1408.0481 737.6756 nan 47.61%
0 2 737.6756 15 1408.0481 737.6756 14 47.61%
CPXPARAM_MIP_Cuts_ZeroHalfCut 0
29
Node Left Objective IInf Best_Integer Best_Bound ItCnt Gap
0 0 857.6756 8 857.6756 12
0+ 0 nan nan 1377.6756 857.6756 nan 37.74%
0+ 0 nan nan 927.4008 857.6756 nan 7.52%
0+ 0 nan nan 919.2351 857.6756 nan 6.70%
0 2 857.6756 6 919.2351 857.6756 12 6.70%
CPXPARAM_MIP_Cuts_ZeroHalfCut 0
30
Node Left Objective IInf Best_Integer Best_Bound ItCnt Gap
0 0 395.7677 22 395.7677 13
0+ 0 nan nan 1588.9378 395.7677 nan 75.09%
0+ 0 nan nan 1248.7140 395.7677 nan 68.31%
0 2 395.7677 22 1248.7140 395.7677 13 68.31%
CPXPARAM_MIP_Cuts_ZeroHalfCut 0
31
Node Left Objective IInf Best_Integer Best_Bound ItCnt Gap
0 0 513.7633 11 513.7633 13
0+ 0 nan nan 1493.7633 513.7633 nan 65.61%
0+ 0 nan nan 693.1793 513.7633 nan 25.88%
0 2 513.7633 11 693.1793 513.7633 13 25.88%
CPXPARAM_MIP_Cuts_ZeroHalfCut 0
32
Node Left Objective IInf Best_Integer Best_Bound ItCnt Gap
0 0 304.6647 23 304.6647 14
0+ 0 nan nan 989.3206 304.6647 nan 69.20%
0+ 0 nan nan 822.5024 304.6647 nan 62.96%
0+ 0 nan nan 735.8938 304.6647 nan 58.60%
0 2 304.6647 23 735.8938 307.2992 14 58.24%
CPXPARAM_MIP_Cuts_ZeroHalfCut 0
33
Node Left Objective IInf Best_Integer Best_Bound ItCnt Gap
0 0 417.0621 8 417.0621 13
0+ 0 nan nan 897.0621 417.0621 nan 53.51%
0+ 0 nan nan 589.6251 417.0621 nan 29.27%
0+ 0 nan nan 588.0397 417.0621 nan 29.08%
0 2 417.0621 8 588.0397 417.0621 13 29.08%
CPXPARAM_MIP_Cuts_ZeroHalfCut 0
34
Node Left Objective IInf Best_Integer Best_Bound ItCnt Gap
0 0 18.4093 27 18.4093 14
0+ 0 nan nan 862.0889 18.4093 nan 97.86%
0 2 18.4093 27 862.0889 24.2376 14 97.19%
CPXPARAM_MIP_Cuts_ZeroHalfCut 0
35
Node Left Objective IInf Best_Integer Best_Bound ItCnt Gap
0 0 67.5371 18 67.5371 13
0+ 0 nan nan 976.2922 67.5371 nan 93.08%
0+ 0 nan nan 355.3643 67.5371 nan 80.99%
0 2 67.5371 18 355.3643 81.6384 13 77.03%
CPXPARAM_MIP_Cuts_ZeroHalfCut 0
36
Node Left Objective IInf Best_Integer Best_Bound ItCnt Gap
0 0 586.6437 17 586.6437 13
0+ 0 nan nan 1993.9850 586.6437 nan 70.58%
0+ 0 nan nan 1988.3704 586.6437 nan 70.50%
0+ 0 nan nan 1344.9952 586.6437 nan 56.38%
0 2 586.6437 17 1344.9952 586.6437 13 56.38%
CPXPARAM_MIP_Cuts_ZeroHalfCut 0
37
Node Left Objective IInf Best_Integer Best_Bound ItCnt Gap
0 0 536.7930 7 536.7930 13
0+ 0 nan nan 1136.7930 536.7930 nan 52.78%
0+ 0 nan nan 705.4649 536.7930 nan 23.91%
0 2 536.7930 7 705.4649 536.7930 13 23.91%
CPXPARAM_MIP_Cuts_ZeroHalfCut 0
38
Node Left Objective IInf Best_Integer Best_Bound ItCnt Gap
0 0 221.9075 21 221.9075 14
0+ 0 nan nan 1289.5381 221.9075 nan 82.79%
0 2 221.9075 21 1289.5381 221.9075 14 82.79%
CPXPARAM_MIP_Cuts_ZeroHalfCut 0
39
Node Left Objective IInf Best_Integer Best_Bound ItCnt Gap
0 0 166.8114 18 166.8114 13
0+ 0 nan nan 1286.8114 166.8114 nan 87.04%
0+ 0 nan nan 635.9856 166.8114 nan 73.77%
0+ 0 nan nan 555.0552 166.8114 nan 69.95%
0 2 166.8114 18 555.0552 166.8114 13 69.95%
CPXPARAM_MIP_Cuts_ZeroHalfCut 0
